Route #1: 1 52 24 21 43 67 69 58 72
Route #2: 17 38 56 47 65 49 27 2
Route #3: 63 5 30 70 37
Route #4: 57 7 76 32 73 29 75
Route #5: 8 71 22 34 12 15 51
Route #6: 45 46 31 3 20 54 62
Route #7: 50 61 13 48 39 74 28
Route #8: 9 19 33 55 35 59 4 36 14 41
Route #9: 6 60 66 16 18 68 10 25 42
Route #10: 53 40 64 11 26 44 23 77
Cost 1260